Translating instance to solver...

GLPSOL--GLPK LP/MIP Solver 5.0
Parameter(s) specified in the command line:
 --tmlim 28800 --mipgap 0.0 --write /tmp/tmp1pqmwjr9.glpk.raw --wglp /tmp/tmpw98_b7s8.glpk.glp
 --cpxlp /tmp/tmpbsauysjf.pyomo.lp
Reading problem data from '/tmp/tmpbsauysjf.pyomo.lp'...
/tmp/tmpbsauysjf.pyomo.lp:77585: warning: lower bound of variable 'x2' redefined
/tmp/tmpbsauysjf.pyomo.lp:77585: warning: upper bound of variable 'x2' redefined
12726 rows, 7642 columns, 31692 non-zeros
7642 integer variables, 7620 of which are binary
85205 lines were read
Writing problem data to '/tmp/tmpw98_b7s8.glpk.glp'...
59610 lines were written
GLPK Integer Optimizer 5.0
12726 rows, 7642 columns, 31692 non-zeros
7642 integer variables, 7620 of which are binary
Preprocessing...
140 hidden packing inequaliti(es) were detected
1660 hidden covering inequaliti(es) were detected
99 constraint coefficient(s) were reduced
7093 rows, 3330 columns, 18577 non-zeros
3330 integer variables, 3309 of which are binary
Scaling...
 A: min|aij| =  1.000e+00  max|aij| =  2.100e+01  ratio =  2.100e+01
GM: min|aij| =  4.808e-01  max|aij| =  2.080e+00  ratio =  4.325e+00
EQ: min|aij| =  2.743e-01  max|aij| =  1.000e+00  ratio =  3.645e+00
2N: min|aij| =  2.500e-01  max|aij| =  1.375e+00  ratio =  5.500e+00
Constructing initial basis...
Size of triangular part is 7093
Solving LP relaxation...
GLPK Simplex Optimizer 5.0
7093 rows, 3330 columns, 18577 non-zeros
      0: obj =   0.000000000e+00 inf =   9.312e+01 (105)
Perturbing LP to avoid stalling [200]...
    613: obj =   3.534164131e+00 inf =   2.100e-08 (0) 2
Removing LP perturbation [1284]...
*  1284: obj =   1.126067714e+00 inf =   1.485e-13 (0) 5
OPTIMAL LP SOLUTION FOUND
Integer optimization begins...
Long-step dual simplex will be used
+  1284: mip =     not found yet >=              -inf        (1; 0)
+  7834: mip =     not found yet >=   1.134123303e+00        (184; 8)
+ 13505: mip =     not found yet >=   1.134123303e+00        (301; 16)
+ 18098: mip =     not found yet >=   1.141193765e+00        (469; 22)
+ 25154: mip =     not found yet >=   1.146157000e+00        (609; 32)
+ 30631: mip =     not found yet >=   1.146157000e+00        (743; 38)
+ 37218: mip =     not found yet >=   1.148878774e+00        (950; 47)
+ 44650: mip =     not found yet >=   1.151190173e+00        (1150; 55)
+ 50489: mip =     not found yet >=   1.151190173e+00        (1282; 62)
+ 57554: mip =     not found yet >=   1.151190173e+00        (1405; 72)
+ 63752: mip =     not found yet >=   1.151190173e+00        (1519; 81)
+ 66456: >>>>>   1.817673000e+00 >=   1.151782000e+00  36.6% (1562; 84)
+ 74789: mip =   1.817673000e+00 >=   1.151782000e+00  36.6% (1125; 1144)
Time used: 60.0 secs.  Memory used: 28.9 Mb.
+ 81924: mip =   1.817673000e+00 >=   1.154429059e+00  36.5% (1213; 1156)
+ 89148: mip =   1.817673000e+00 >=   1.157084548e+00  36.3% (1324; 1169)
+ 95792: mip =   1.817673000e+00 >=   1.158210571e+00  36.3% (1425; 1181)
+102995: mip =   1.817673000e+00 >=   1.161448944e+00  36.1% (1521; 1194)
+111964: mip =   1.817673000e+00 >=   1.165628154e+00  35.9% (1622; 1208)
+119896: mip =   1.817673000e+00 >=   1.169743529e+00  35.6% (1717; 1224)
+127557: mip =   1.817673000e+00 >=   1.171028786e+00  35.6% (1809; 1235)
+136052: mip =   1.817673000e+00 >=   1.174282000e+00  35.4% (1908; 1253)
+144120: mip =   1.817673000e+00 >=   1.174282000e+00  35.4% (2013; 1267)
+149885: >>>>>   1.511782000e+00 >=   1.176491125e+00  22.2% (2126; 1281)
+159078: mip =   1.511782000e+00 >=   1.184138400e+00  21.7% (1308; 3081)
+166127: mip =   1.511782000e+00 >=   1.184138400e+00  21.7% (1397; 3103)
Time used: 120.0 secs.  Memory used: 46.7 Mb.
+172194: mip =   1.511782000e+00 >=   1.184138400e+00  21.7% (1496; 3122)
+178780: mip =   1.511782000e+00 >=   1.184347573e+00  21.7% (1599; 3144)
+185352: mip =   1.511782000e+00 >=   1.186404259e+00  21.5% (1701; 3168)
+193914: mip =   1.511782000e+00 >=   1.190353429e+00  21.3% (1773; 3196)
+202965: mip =   1.511782000e+00 >=   1.192878143e+00  21.1% (1850; 3227)
+210002: mip =   1.511782000e+00 >=   1.192878143e+00  21.1% (1942; 3254)
+216118: mip =   1.511782000e+00 >=   1.194134941e+00  21.0% (2025; 3276)
+223746: mip =   1.511782000e+00 >=   1.196782000e+00  20.8% (2114; 3303)
+231364: mip =   1.511782000e+00 >=   1.200846149e+00  20.6% (2208; 3337)
+239425: mip =   1.511782000e+00 >=   1.203631108e+00  20.4% (2280; 3368)
+246971: mip =   1.511782000e+00 >=   1.205891000e+00  20.2% (2364; 3401)
+255881: mip =   1.511782000e+00 >=   1.209453517e+00  20.0% (2429; 3440)
Time used: 180.1 secs.  Memory used: 65.8 Mb.
+264277: mip =   1.511782000e+00 >=   1.211782000e+00  19.8% (2484; 3471)
+272149: mip =   1.511782000e+00 >=   1.214727500e+00  19.6% (2552; 3508)
+279679: mip =   1.511782000e+00 >=   1.214727500e+00  19.6% (2631; 3542)
+287455: mip =   1.511782000e+00 >=   1.217508327e+00  19.5% (2709; 3577)
+297185: mip =   1.511782000e+00 >=   1.220605529e+00  19.3% (2767; 3614)
+306638: mip =   1.511782000e+00 >=   1.224617419e+00  19.0% (2826; 3656)
+315298: mip =   1.511782000e+00 >=   1.226782000e+00  18.9% (2895; 3692)
+322453: mip =   1.511782000e+00 >=   1.230532000e+00  18.6% (2951; 3724)
+330932: mip =   1.511782000e+00 >=   1.230532000e+00  18.6% (3037; 3742)
+338594: mip =   1.511782000e+00 >=   1.233600182e+00  18.4% (3096; 3770)
+346608: mip =   1.511782000e+00 >=   1.236576857e+00  18.2% (3170; 3813)
+354352: mip =   1.511782000e+00 >=   1.236576857e+00  18.2% (3241; 3849)
Time used: 240.2 secs.  Memory used: 86.1 Mb.
+363314: mip =   1.511782000e+00 >=   1.239396129e+00  18.0% (3312; 3889)
+373319: mip =   1.511782000e+00 >=   1.241917811e+00  17.9% (3358; 3940)
+380440: mip =   1.511782000e+00 >=   1.245316600e+00  17.6% (3410; 3985)
+388597: mip =   1.511782000e+00 >=   1.245316600e+00  17.6% (3489; 4030)
+396397: mip =   1.511782000e+00 >=   1.247976522e+00  17.4% (3553; 4069)
+403567: mip =   1.511782000e+00 >=   1.250754750e+00  17.3% (3617; 4113)
+411777: mip =   1.511782000e+00 >=   1.252963875e+00  17.1% (3659; 4154)
+420206: mip =   1.511782000e+00 >=   1.255761659e+00  16.9% (3708; 4206)
+429277: mip =   1.511782000e+00 >=   1.257552240e+00  16.8% (3766; 4246)
+437475: mip =   1.511782000e+00 >=   1.260197784e+00  16.6% (3817; 4286)
+443863: mip =   1.511782000e+00 >=   1.262602571e+00  16.5% (3884; 4321)
+451491: mip =   1.511782000e+00 >=   1.265709333e+00  16.3% (3952; 4369)
Time used: 300.2 secs.  Memory used: 104.1 Mb.
+459883: mip =   1.511782000e+00 >=   1.265709333e+00  16.3% (4014; 4417)
+467665: mip =   1.511782000e+00 >=   1.268799141e+00  16.1% (4060; 4467)
+475100: mip =   1.511782000e+00 >=   1.271535829e+00  15.9% (4127; 4504)
+483234: mip =   1.511782000e+00 >=   1.274376344e+00  15.7% (4175; 4559)
+492691: mip =   1.511782000e+00 >=   1.277435155e+00  15.5% (4196; 4609)
+501423: mip =   1.511782000e+00 >=   1.280275571e+00  15.3% (4245; 4669)
+508967: mip =   1.511782000e+00 >=   1.281207600e+00  15.3% (4304; 4717)
+517635: mip =   1.511782000e+00 >=   1.284248182e+00  15.1% (4350; 4775)
+527645: mip =   1.511782000e+00 >=   1.288733387e+00  14.8% (4378; 4853)
+535252: mip =   1.511782000e+00 >=   1.291200250e+00  14.6% (4430; 4902)
+543521: mip =   1.511782000e+00 >=   1.291200250e+00  14.6% (4495; 4947)
+549974: mip =   1.511782000e+00 >=   1.291200250e+00  14.6% (4556; 4978)
Time used: 360.2 secs.  Memory used: 122.1 Mb.
+558579: mip =   1.511782000e+00 >=   1.296373689e+00  14.2% (4586; 5038)
+565462: mip =   1.511782000e+00 >=   1.298845320e+00  14.1% (4627; 5082)
+573319: mip =   1.511782000e+00 >=   1.299697222e+00  14.0% (4657; 5129)
+581789: mip =   1.511782000e+00 >=   1.303945708e+00  13.7% (4674; 5198)
+589653: mip =   1.511782000e+00 >=   1.306494800e+00  13.6% (4716; 5269)
+596906: mip =   1.511782000e+00 >=   1.306494800e+00  13.6% (4764; 5326)
+604607: mip =   1.511782000e+00 >=   1.307854667e+00  13.5% (4803; 5384)
+614251: mip =   1.511782000e+00 >=   1.312056455e+00  13.2% (4807; 5478)
+622315: mip =   1.511782000e+00 >=   1.315636370e+00  13.0% (4804; 5557)
+630775: mip =   1.511782000e+00 >=   1.316691167e+00  12.9% (4829; 5657)
+638665: mip =   1.511782000e+00 >=   1.316691167e+00  12.9% (4885; 5706)
+645665: mip =   1.511782000e+00 >=   1.318401653e+00  12.8% (4922; 5761)
Time used: 420.2 secs.  Memory used: 135.8 Mb.
+654943: mip =   1.511782000e+00 >=   1.321255986e+00  12.6% (4941; 5863)
+663235: mip =   1.511782000e+00 >=   1.323974286e+00  12.4% (4935; 5961)
+670749: mip =   1.511782000e+00 >=   1.323974286e+00  12.4% (4970; 6032)
+678662: mip =   1.511782000e+00 >=   1.328245632e+00  12.1% (4978; 6112)
+686158: mip =   1.511782000e+00 >=   1.329436625e+00  12.1% (5003; 6183)
+693523: mip =   1.511782000e+00 >=   1.332606239e+00  11.9% (5023; 6236)
+701243: mip =   1.511782000e+00 >=   1.336010737e+00  11.6% (5039; 6307)
+708995: mip =   1.511782000e+00 >=   1.339864727e+00  11.4% (5038; 6398)
+716446: mip =   1.511782000e+00 >=   1.342702306e+00  11.2% (5038; 6476)
+724648: mip =   1.511782000e+00 >=   1.347280267e+00  10.9% (5025; 6582)
+731821: mip =   1.511782000e+00 >=   1.349676238e+00  10.7% (5038; 6660)
+740528: mip =   1.511782000e+00 >=   1.354077844e+00  10.4% (5048; 6764)
Time used: 480.2 secs.  Memory used: 147.4 Mb.
+747877: mip =   1.511782000e+00 >=   1.358836500e+00  10.1% (5033; 6863)
+758618: mip =   1.511782000e+00 >=   1.367673000e+00   9.5% (4966; 7038)
+768523: mip =   1.511782000e+00 >=   1.367673000e+00   9.5% (4909; 7267)
+777067: mip =   1.511782000e+00 >=   1.367673000e+00   9.5% (4854; 7468)
+784615: mip =   1.511782000e+00 >=   1.367673000e+00   9.5% (4854; 7592)
+793334: mip =   1.511782000e+00 >=   1.367673000e+00   9.5% (4858; 7693)
+801048: mip =   1.511782000e+00 >=   1.367673000e+00   9.5% (4845; 7809)
+811508: mip =   1.511782000e+00 >=   1.367673000e+00   9.5% (4830; 7936)
+819728: mip =   1.511782000e+00 >=   1.367673000e+00   9.5% (4810; 8060)
+827712: mip =   1.511782000e+00 >=   1.367673000e+00   9.5% (4829; 8147)
+837244: mip =   1.511782000e+00 >=   1.367673000e+00   9.5% (4813; 8294)
+846238: mip =   1.511782000e+00 >=   1.367673000e+00   9.5% (4809; 8414)
Time used: 540.2 secs.  Memory used: 154.1 Mb.
+854774: mip =   1.511782000e+00 >=   1.367673000e+00   9.5% (4793; 8535)
+862618: mip =   1.511782000e+00 >=   1.367673000e+00   9.5% (4832; 8597)
+869983: mip =   1.511782000e+00 >=   1.367673000e+00   9.5% (4865; 8666)
+878584: mip =   1.511782000e+00 >=   1.367673000e+00   9.5% (4849; 8799)
+887353: mip =   1.511782000e+00 >=   1.367673000e+00   9.5% (4830; 8930)
+895313: mip =   1.511782000e+00 >=   1.367673000e+00   9.5% (4828; 9030)
+904726: mip =   1.511782000e+00 >=   1.369584819e+00   9.4% (4797; 9195)
+911639: mip =   1.511782000e+00 >=   1.373631916e+00   9.1% (4759; 9416)
+918549: mip =   1.511782000e+00 >=   1.378821800e+00   8.8% (4696; 9663)
+926429: mip =   1.511782000e+00 >=   1.384225543e+00   8.4% (4622; 9968)
+932712: mip =   1.511782000e+00 >=   1.388260000e+00   8.2% (4563; 10141)
+941936: mip =   1.511782000e+00 >=   1.395481273e+00   7.7% (4460; 10416)
Time used: 600.2 secs.  Memory used: 158.2 Mb.
+950505: mip =   1.511782000e+00 >=   1.398822344e+00   7.5% (4365; 10697)
+959875: mip =   1.511782000e+00 >=   1.405909375e+00   7.0% (4242; 10997)
+968302: mip =   1.511782000e+00 >=   1.409818333e+00   6.7% (4169; 11218)
+976874: mip =   1.511782000e+00 >=   1.414080983e+00   6.5% (4071; 11492)
+986678: mip =   1.511782000e+00 >=   1.418654833e+00   6.2% (3970; 11785)
+995337: mip =   1.511782000e+00 >=   1.418654833e+00   6.2% (3910; 12025)
+1003492: mip =   1.511782000e+00 >=   1.424319481e+00   5.8% (3813; 12282)
+1010384: mip =   1.511782000e+00 >=   1.428851200e+00   5.5% (3716; 12554)
+1019290: mip =   1.511782000e+00 >=   1.428851200e+00   5.5% (3609; 12930)
+1026848: mip =   1.511782000e+00 >=   1.431958714e+00   5.3% (3541; 13166)
+1034425: mip =   1.511782000e+00 >=   1.437215040e+00   4.9% (3379; 13677)
+1042447: mip =   1.511782000e+00 >=   1.444145750e+00   4.5% (3200; 14132)
Time used: 660.2 secs.  Memory used: 158.2 Mb.
+1050232: mip =   1.511782000e+00 >=   1.444145750e+00   4.5% (3077; 14606)
+1057116: mip =   1.511782000e+00 >=   1.444145750e+00   4.5% (3008; 14887)
+1066185: mip =   1.511782000e+00 >=   1.451646192e+00   4.0% (2745; 15544)
+1074033: mip =   1.511782000e+00 >=   1.457640941e+00   3.6% (2539; 16176)
+1082001: mip =   1.511782000e+00 >=   1.469636667e+00   2.8% (2236; 17065)
+1091377: mip =   1.511782000e+00 >=   1.469636667e+00   2.8% (1917; 18072)
+1101236: mip =   1.511782000e+00 >=   1.473545625e+00   2.5% (1628; 19038)
+1109874: mip =   1.511782000e+00 >=   1.490029400e+00   1.4% (1061; 21065)
+1119116: mip =   1.511782000e+00 >=   1.503624556e+00   0.5% (339; 24507)
+1121773: mip =   1.511782000e+00 >=     tree is empty   0.0% (0; 27203)
INTEGER OPTIMAL SOLUTION FOUND
Time used:   704.4 secs
Memory used: 160.0 Mb (167777470 bytes)
Writing MIP solution to '/tmp/tmp1pqmwjr9.glpk.raw'...
20377 lines were written

Time in solver (for this epsilon): 704.4498653411865 s
Elapsed time (for this epsilon): 704.7352063655853 s


Total elapsed time since execution of first epsilon: 898.4492933750153 s

Results:

E = 1.511782 mA
C = 70.0 points
C ~= 28.0 km^2

Minimum Epsilon for this instance = 10
Maximum Epsilon for this instance = 100

Current Epsilon = 60


Instance Epsilon Preprocessing Time: 0.0022029876708984375 s


Updated solution vectors:
sol_E = [-0.611782,-1.061782,-1.061782,-1.061782,-1.061782,-1.511782]
sol_C = [11.0,49.0,31.0,40.0,50.0,70.0]
sol_eps = [10,20,30,40,50,60]
sol_gap = [0.0,0.0,0.0,0.0,0.0,0.0]
